words_hard_train/4732.qaiger
aag 159 32 0 1 127
2
4
8
12
16
20
24
28
36
38
46
50
52
66
74
76
90
98
100
114
166
168
182
206
208
222
246
248
262
282
284
296
319
6 3 5
10 6 9
14 10 13
18 14 17
22 18 21
26 22 25
30 26 29
32 27 28
34 31 33
40 37 39
42 36 38
44 41 43
48 45 47
54 51 53
56 50 52
58 55 57
60 43 59
62 42 58
64 61 63
68 65 67
70 48 68
72 63 57
78 75 77
80 74 76
82 79 81
84 72 83
86 73 82
88 85 87
92 89 91
94 70 92
96 87 81
102 99 101
104 98 100
106 103 105
108 96 107
110 97 106
112 109 111
116 113 115
118 95 117
120 94 116
122 119 121
124 11 12
126 125 15
128 48 3
130 129 4
132 130 69
134 133 71
136 135 7
138 71 93
140 139 95
142 140 9
144 136 143
146 145 11
148 141 8
150 146 149
152 127 151
154 122 153
156 150 13
158 155 157
160 15 16
162 161 19
164 111 105
170 167 169
172 166 168
174 171 173
176 164 175
178 165 174
180 177 179
184 181 183
186 121 185
188 120 184
190 187 189
192 163 191
194 159 193
196 162 190
198 195 197
200 19 20
202 201 23
204 179 173
210 207 209
212 206 208
214 211 213
216 204 215
218 205 214
220 217 219
224 221 223
226 189 225
228 188 224
230 227 229
232 203 231
234 199 233
236 202 230
238 235 237
240 23 24
242 241 27
244 219 213
250 247 249
252 246 248
254 251 253
256 244 255
258 245 254
260 257 259
264 261 263
266 229 265
268 228 264
270 267 269
272 243 271
274 239 273
276 242 270
278 275 277
280 35 279
286 282 285
288 283 284
290 287 289
292 259 253
294 291 292
298 295 297
300 290 293
302 298 301
304 268 303
306 281 305
308 34 278
310 269 302
312 309 311
314 306 313
316 280 304
318 315 317
i0 1 x2[0]
i1 1 x2[1]
i2 1 x2[2]
i3 1 x2[3]
i4 1 x2[4]
i5 1 x2[5]
i6 1 x2[6]
i7 1 x2[7]
i8 2 y1[0]
i9 1 x1[0]
i10 2 y2[0]
i11 2 y1[1]
i12 1 x1[1]
i13 2 y2[1]
i14 2 y1[2]
i15 1 x1[2]
i16 2 y2[2]
i17 2 y1[3]
i18 1 x1[3]
i19 2 y2[3]
i20 2 y1[4]
i21 1 x1[4]
i22 2 y2[4]
i23 2 y1[5]
i24 1 x1[5]
i25 2 y2[5]
i26 2 y1[6]
i27 1 x1[6]
i28 2 y2[6]
i29 2 y1[7]
i30 1 x1[7]
i31 2 y2[7]
o0 bv[0]
c
simplified
  <
    unary minus
      1 x2
    or
      add
        2 y1
        1 x1
      2 y2
