words_hard_train/4732.qaiger.qdimacs
p cnf 159 382
a 1 2 4 6 38 8 104 10 12 14 142 50 19 84 26 124 0
e 3 5 7 9 11 13 15 16 17 18 20 21 22 23 24 25 27 28 29 30 31 32 33 34 35 36 37 39 40 41 42 43 44 45 46 47 48 49 51 52 53 54 55 56 57 58 59 60 61 62 63 64 65 66 67 68 69 70 71 72 73 74 75 76 77 78 79 80 81 82 83 85 86 87 88 89 90 91 92 93 94 95 96 97 98 99 100 101 102 103 105 106 107 108 109 110 111 112 113 114 115 116 117 118 119 120 121 122 123 125 126 127 128 129 130 131 132 133 134 135 136 137 138 139 140 141 143 144 145 146 147 148 149 150 151 152 153 154 155 156 157 158 159 0
1 2 3 0
-1 -3 0
-2 -3 0
-3 4 5 0
3 -5 0
-4 -5 0
-5 6 7 0
5 -7 0
-6 -7 0
-7 8 9 0
7 -9 0
-8 -9 0
-9 10 11 0
9 -11 0
-10 -11 0
-11 12 13 0
11 -13 0
-12 -13 0
-13 14 15 0
13 -15 0
-14 -15 0
13 -14 16 0
-13 -16 0
14 -16 0
15 16 17 0
-15 -17 0
-16 -17 0
18 19 20 0
-18 -20 0
-19 -20 0
-18 -19 21 0
18 -21 0
19 -21 0
20 21 22 0
-20 -22 0
-21 -22 0
22 23 24 0
-22 -24 0
-23 -24 0
25 26 27 0
-25 -27 0
-26 -27 0
-25 -26 28 0
25 -28 0
26 -28 0
27 28 29 0
-27 -29 0
-28 -29 0
21 29 30 0
-21 -30 0
-29 -30 0
-21 -29 31 0
21 -31 0
29 -31 0
30 31 32 0
-30 -32 0
-31 -32 0
32 33 34 0
-32 -34 0
-33 -34 0
-24 -34 35 0
24 -35 0
34 -35 0
31 28 36 0
-31 -36 0
-28 -36 0
37 38 39 0
-37 -39 0
-38 -39 0
-37 -38 40 0
37 -40 0
38 -40 0
39 40 41 0
-39 -41 0
-40 -41 0
-36 41 42 0
36 -42 0
-41 -42 0
36 -41 43 0
-36 -43 0
41 -43 0
42 43 44 0
-42 -44 0
-43 -44 0
44 45 46 0
-44 -46 0
-45 -46 0
-35 -46 47 0
35 -47 0
46 -47 0
43 40 48 0
-43 -48 0
-40 -48 0
49 50 51 0
-49 -51 0
-50 -51 0
-49 -50 52 0
49 -52 0
50 -52 0
51 52 53 0
-51 -53 0
-52 -53 0
-48 53 54 0
48 -54 0
-53 -54 0
48 -53 55 0
-48 -55 0
53 -55 0
54 55 56 0
-54 -56 0
-55 -56 0
56 57 58 0
-56 -58 0
-57 -58 0
47 58 59 0
-47 -59 0
-58 -59 0
-47 -58 60 0
47 -60 0
58 -60 0
59 60 61 0
-59 -61 0
-60 -61 0
5 -6 62 0
-5 -62 0
6 -62 0
62 7 63 0
-62 -63 0
-7 -63 0
-24 1 64 0
24 -64 0
-1 -64 0
64 -2 65 0
-64 -65 0
2 -65 0
-65 34 66 0
65 -66 0
-34 -66 0
66 35 67 0
-66 -67 0
-35 -67 0
67 3 68 0
-67 -68 0
-3 -68 0
35 46 69 0
-35 -69 0
-46 -69 0
69 47 70 0
-69 -70 0
-47 -70 0
-70 4 71 0
70 -71 0
-4 -71 0
-68 71 72 0
68 -72 0
-71 -72 0
72 5 73 0
-72 -73 0
-5 -73 0
70 -4 74 0
-70 -74 0
4 -74 0
-73 74 75 0
73 -75 0
-74 -75 0
63 75 76 0
-63 -76 0
-75 -76 0
-61 76 77 0
61 -77 0
-76 -77 0
-75 6 78 0
75 -78 0
-6 -78 0
77 78 79 0
-77 -79 0
-78 -79 0
7 -8 80 0
-7 -80 0
8 -80 0
80 9 81 0
-80 -81 0
-9 -81 0
55 52 82 0
-55 -82 0
-52 -82 0
83 84 85 0
-83 -85 0
-84 -85 0
-83 -84 86 0
83 -86 0
84 -86 0
85 86 87 0
-85 -87 0
-86 -87 0
-82 87 88 0
82 -88 0
-87 -88 0
82 -87 89 0
-82 -89 0
87 -89 0
88 89 90 0
-88 -90 0
-89 -90 0
90 91 92 0
-90 -92 0
-91 -92 0
60 92 93 0
-60 -93 0
-92 -93 0
-60 -92 94 0
60 -94 0
92 -94 0
93 94 95 0
-93 -95 0
-94 -95 0
81 95 96 0
-81 -96 0
-95 -96 0
79 96 97 0
-79 -97 0
-96 -97 0
-81 -95 98 0
81 -98 0
95 -98 0
97 98 99 0
-97 -99 0
-98 -99 0
9 -10 100 0
-9 -100 0
10 -100 0
100 11 101 0
-100 -101 0
-11 -101 0
89 86 102 0
-89 -102 0
-86 -102 0
103 104 105 0
-103 -105 0
-104 -105 0
-103 -104 106 0
103 -106 0
104 -106 0
105 106 107 0
-105 -107 0
-106 -107 0
-102 107 108 0
102 -108 0
-107 -108 0
102 -107 109 0
-102 -109 0
107 -109 0
108 109 110 0
-108 -110 0
-109 -110 0
110 111 112 0
-110 -112 0
-111 -112 0
94 112 113 0
-94 -113 0
-112 -113 0
-94 -112 114 0
94 -114 0
112 -114 0
113 114 115 0
-113 -115 0
-114 -115 0
101 115 116 0
-101 -116 0
-115 -116 0
99 116 117 0
-99 -117 0
-116 -117 0
-101 -115 118 0
101 -118 0
115 -118 0
117 118 119 0
-117 -119 0
-118 -119 0
11 -12 120 0
-11 -120 0
12 -120 0
120 13 121 0
-120 -121 0
-13 -121 0
109 106 122 0
-109 -122 0
-106 -122 0
123 124 125 0
-123 -125 0
-124 -125 0
-123 -124 126 0
123 -126 0
124 -126 0
125 126 127 0
-125 -127 0
-126 -127 0
-122 127 128 0
122 -128 0
-127 -128 0
122 -127 129 0
-122 -129 0
127 -129 0
128 129 130 0
-128 -130 0
-129 -130 0
130 131 132 0
-130 -132 0
-131 -132 0
114 132 133 0
-114 -133 0
-132 -133 0
-114 -132 134 0
114 -134 0
132 -134 0
133 134 135 0
-133 -135 0
-134 -135 0
121 135 136 0
-121 -136 0
-135 -136 0
119 136 137 0
-119 -137 0
-136 -137 0
-121 -135 138 0
121 -138 0
135 -138 0
137 138 139 0
-137 -139 0
-138 -139 0
17 139 140 0
-17 -140 0
-139 -140 0
-141 142 143 0
141 -143 0
-142 -143 0
141 -142 144 0
-141 -144 0
142 -144 0
143 144 145 0
-143 -145 0
-144 -145 0
129 126 146 0
-129 -146 0
-126 -146 0
145 -146 147 0
-145 -147 0
146 -147 0
147 148 149 0
-147 -149 0
-148 -149 0
-145 146 150 0
145 -150 0
-146 -150 0
-149 150 151 0
149 -151 0
-150 -151 0
-134 151 152 0
134 -152 0
-151 -152 0
140 152 153 0
-140 -153 0
-152 -153 0
-17 -139 154 0
17 -154 0
139 -154 0
134 -151 155 0
-134 -155 0
151 -155 0
154 155 156 0
-154 -156 0
-155 -156 0
-153 156 157 0
153 -157 0
-156 -157 0
-140 -152 158 0
140 -158 0
152 -158 0
157 158 159 0
-157 -159 0
-158 -159 0
-159 0
